19 17 1 91 11 73 86 47 52 5 28 43 46 40 38 81 68 74 25 35 85 99 89 71 6 18 93 23 14 31 10 98 69 33 7 82 66 70 97 24 29 39 3 48 67 78 80 0 58 26 90 72 34 96 53 44 32 50 54 9 76 79 12 42 4 22 21 88 61 27 77 20 62 65 59 56 8 49 92 15 63 95 37 64 16 84 30 87 51 55 45 36 75 83 94 60 57 13 41 2 

